p cnf 20 20
-20 -14 3 0
-2 -1 -8 0
13 6 -20 0
8 -5 19 0
15 -1 13 0
5 -4 11 0
3 -19 -4 0
15 5 -18 0
8 -13 -19 0
-17 7 -14 0
-1 -19 5 0
-11 8 -19 0
-5 9 10 0
-9 -2 -18 0
-8 15 -13 0
18 -11 4 0
8 -17 -1 0
-4 -10 -7 0
10 3 12 0
-1 -20 12 0
